32	4
12	13	19	11
0	0	0	0	0	1	2
7	0	8	0	2	1	3
8	7	0	0	8	2	4	6
3	0	7	10	0	1	5
7	11	0	0	6	3	7	15	18
3	0	6	0	5	2	9	18
10	0	6	0	1	1	8
4	0	0	13	8	1	9
6	1	2	0	0	1	10
9	11	1	0	0	1	11
8	12	0	6	0	1	12
4	5	0	9	0	2	13	20
8	0	13	0	4	1	14
4	0	2	12	0	1	16
3	1	0	11	0	1	16
10	7	0	0	7	1	17
2	1	0	0	1	1	19
1	0	0	19	8	1	19
5	7	0	0	11	1	21
7	8	0	8	0	1	21
10	7	0	0	4	1	22
5	0	8	1	0	1	23
5	2	2	0	0	1	24
6	0	0	11	7	2	25	31
6	0	10	9	0	1	26
5	0	13	0	3	1	27
10	9	0	3	0	2	28	30
3	1	0	11	0	1	29
5	0	13	19	0	1	32
6	0	3	0	8	1	32
8	0	4	1	0	1	32
0	0	0	0	0	0
